NAME : mEgtspf.pid11058.gtsp.218592050.tour
COMMENT : Length = 218592050
COMMENT : Found by LKH [Keld Helsgaun] Sat Mar  8 22:22:23 2025
TYPE : TOUR
DIMENSION : 135
TOUR_SECTION
1
128
129
130
131
95
92
93
94
124
125
126
127
13
120
121
122
123
35
32
33
34
5
71
68
69
70
6
77
78
79
76
14
85
86
87
84
82
83
80
81
3
53
54
55
52
12
8
29
30
31
28
109
110
111
108
25
26
27
24
132
133
134
135
15
17
18
19
16
11
115
112
113
114
10
51
48
49
50
106
107
104
105
75
72
73
74
7
37
38
39
36
45
46
47
44
2
40
41
42
43
67
64
65
66
4
100
101
102
103
56
57
58
59
98
99
96
97
21
22
23
20
88
89
90
91
9
60
61
62
63
119
116
117
118
-1
EOF
